************************************************************************
file with basedata            : md234_.bas
initial value random generator: 1994824942
************************************************************************
projects                      :  1
jobs (incl. supersource/sink ):  18
horizon                       :  134
RESOURCES
  - renewable                 :  2   R
  - nonrenewable              :  2   N
  - doubly constrained        :  0   D
************************************************************************
PROJECT INFORMATION:
pronr.  #jobs rel.date duedate tardcost  MPM-Time
    1     16      0       25        0       25
************************************************************************
PRECEDENCE RELATIONS:
jobnr.    #modes  #successors   successors
   1        1          3           2   3   4
   2        3          3           6   8  12
   3        3          3           5   9  12
   4        3          3           6   7  10
   5        3          1          16
   6        3          2          11  17
   7        3          3          11  12  13
   8        3          2           9  13
   9        3          2          14  16
  10        3          2          11  13
  11        3          1          15
  12        3          1          14
  13        3          2          14  16
  14        3          2          15  17
  15        3          1          18
  16        3          1          18
  17        3          1          18
  18        1          0        
************************************************************************
REQUESTS/DURATIONS:
jobnr. mode duration  R 1  R 2  N 1  N 2
------------------------------------------------------------------------
  1      1     0       0    0    0    0
  2      1     4       8    0    8    3
         2     5       0    6    8    3
         3    10       0    2    4    1
  3      1     3       2    0    7    9
         2     4       2    0    2    4
         3     4       0    9    2    5
  4      1     2       0   10    9    7
         2     5       8    0    7    4
         3     9       0    8    6    3
  5      1     2       6    0    7   10
         2     6       0    2    7    5
         3     8       0    1    4    3
  6      1     2       2    0    6    6
         2     3       0    6    4    6
         3     7       0    4    3    5
  7      1     1       0    6    7    8
         2     9       0    6    5    5
         3    10       0    6    5    4
  8      1     4       4    0    6    8
         2     9       0    6    6    8
         3     9       3    0    5    8
  9      1     2       8    0    4    4
         2     5       6    0    2    4
         3     8       0    9    1    3
 10      1     7       4    0    7    8
         2     7       0    6    5   10
         3     8       4    0    2    4
 11      1     1       7    0    8    8
         2     3       4    0    8    8
         3     9       2    0    7    6
 12      1     5       6    0    6    9
         2     7       0    3    4    9
         3    10       3    0    2    8
 13      1     5       6    0    6    8
         2     8       5    0    6    7
         3     9       3    0    5    6
 14      1     4       7    0    8    6
         2     5       0   10    7    4
         3     8       0    6    6    4
 15      1     2       0    2    5    8
         2     3       5    0    5    8
         3     5       0    2    4    6
 16      1     4       8    0    7    5
         2     9       0    3    7    4
         3    10       8    0    6    3
 17      1     7       0   10    6    7
         2     8       0    9    4    6
         3    10       0    9    2    5
 18      1     0       0    0    0    0
************************************************************************
RESOURCEAVAILABILITIES:
  R 1  R 2  N 1  N 2
   13   18   86   95
************************************************************************
